Problem:    
Rows:       354
Columns:    129 (110 integer, 110 binary)
Non-zeros:  1125
Status:     INTEGER OPTIMAL
Objective:  value = 13.669 (MINimum)

   No.   Row name        Activity     Lower bound   Upper bound
------ ------------    ------------- ------------- -------------
     1 r.5                         1             1             = 
     2 r.6                    13.669             0               
     3 r.7                    13.669      -998.782               
     4 r.8                   1013.67             0               
     5 r.9                  -986.331      -997.282               
     6 r.10                  1013.67             0               
     7 r.11                 -986.331      -998.354               
     8 r.12                   13.669             0               
     9 r.13                   13.669      -996.578               
    10 r.14                  1013.67             0               
    11 r.15                 -991.199      -998.732               
    12 r.16                   13.669             0               
    13 r.17                   13.669      -997.104               
    14 r.18                  1013.67             0               
    15 r.19                 -992.467      -998.384               
    16 r.20                   13.669             0               
    17 r.21                   13.669      -996.531               
    18 r.22                  1013.67             0               
    19 r.23                 -994.083      -998.337               
    20 r.24                   13.669             0               
    21 r.25                  10.9509      -996.524               
    22 r.26                  1013.67             0               
    23 r.27                 -987.977      -996.778               
    24 r.28                   13.669             0               
    25 r.29                  12.0228      -993.853               
    26 r.30                  1013.67             0               
    27 r.31                 -995.747      -996.405               
    28 r.32                   13.669             0               
    29 r.33                   7.5328      -992.164               
    30 r.34                   13.669             0               
    31 r.35                   8.8006      -994.929               
    32 r.36                  1013.67             0               
    33 r.37                 -991.199      -991.857               
    34 r.38                  1013.67             0               
    35 r.39                 -999.343      -999.343               
    36 r.40                   13.669             0               
    37 r.41                   0.6574      -998.252               
    38 r.42                        1             1             = 
    39 r.43                        1             1             = 
    40 r.44                        1             1             = 
    41 r.45                        1             1             = 
    42 r.46                        1             1             = 
    43 r.47                        1             1             = 
    44 r.48                        1             1             = 
    45 r.49                        1             1             = 
    46 r.50                        1             1             = 
    47 r.51                     1001             2               
    48 r.52                    -1001         -1001               
    49 r.53                     2000      -998.354               
    50 r.54                     1001             2               
    51 r.55                    -1001         -1001               
    52 r.56                     2000      -996.578               
    53 r.57                     1001             2               
    54 r.58                    -1001         -1001               
    55 r.59                  1995.13      -998.732               
    56 r.60                     1001             2               
    57 r.61                    -1001         -1001               
    58 r.62                     2000      -997.104               
    59 r.63                     1001             2               
    60 r.64                    -1001         -1001               
    61 r.65                  1993.86      -998.384               
    62 r.66                     1001             2               
    63 r.67                    -1001         -1001               
    64 r.68                     2000      -996.531               
    65 r.69                   7.7522      -998.782               
    66 r.70                 -992.248      -997.282               
    67 r.71                   2.7181      -998.782               
    68 r.72                 -997.282      -997.282               
    69 r.73                     1001             2               
    70 r.74                    -1001         -1001               
    71 r.75                  1998.35      -996.778               
    72 r.76                     1001             2               
    73 r.77                    -1001         -1001               
    74 r.78                  1998.35      -993.853               
    75 r.79                     1001             2               
    76 r.80                    -1001         -1001               
    77 r.81                  1990.58      -996.405               
    78 r.82                     1001             2               
    79 r.83                    -1001         -1001               
    80 r.84                  1993.86      -992.164               
    81 r.85                     1000             2               
    82 r.86                    -1000         -1001               
    83 r.87                  1995.13      -994.929               
    84 r.88                        2             2               
    85 r.89                       -2         -1001               
    86 r.90                  -4.8684      -991.857               
    87 r.91                     1001             2               
    88 r.92                    -1001         -1001               
    89 r.93                     2000        1.2178               
    90 r.94                     1001             2               
    91 r.95                    -1001         -1001               
    92 r.96                     2000        2.7181               
    93 r.97                        2             2               
    94 r.98                       -2         -1001               
    95 r.99                  -4.8684      -998.732               
    96 r.100                    1000             2               
    97 r.101                   -1000         -1001               
    98 r.102                    2000      -997.104               
    99 r.103                       2             2               
   100 r.104                      -2         -1001               
   101 r.105                 -6.1362      -998.384               
   102 r.106                    1000             2               
   103 r.107                   -1000         -1001               
   104 r.108                    2000      -996.531               
   105 r.109                       2             2               
   106 r.110                      -2         -1001               
   107 r.111                 -7.7522      -998.337               
   108 r.112                    1000             2               
   109 r.113                   -1000         -1001               
   110 r.114                 1997.28      -996.524               
   111 r.115                -998.354      -998.354               
   112 r.116                  1.6462      -996.578               
   113 r.117                -998.354      -998.354               
   114 r.118                  1.6462      -996.578               
   115 r.119                       2             2               
   116 r.120                      -2         -1001               
   117 r.121                 -9.4165      -996.405               
   118 r.122                    1000             2               
   119 r.123                   -1000         -1001               
   120 r.124                 1993.86      -992.164               
   121 r.125                    1001             2               
   122 r.126                   -1001         -1001               
   123 r.127                 2004.87        1.2178               
   124 r.128                    1001             2               
   125 r.129                   -1001         -1001               
   126 r.130                    2000        2.7181               
   127 r.131                       2             2               
   128 r.132                      -2         -1001               
   129 r.133                  4.8684        1.6462               
   130 r.134                    1000             2               
   131 r.135                   -1000         -1001               
   132 r.136                    2000        3.4218               
   133 r.137                       2             2               
   134 r.138                      -2         -1001               
   135 r.139                 -1.2678      -998.384               
   136 r.140                    1000             2               
   137 r.141                   -1000         -1001               
   138 r.142                    2000      -996.531               
   139 r.143                       2             2               
   140 r.144                      -2         -1001               
   141 r.145                 -2.8838      -998.337               
   142 r.146                    1000             2               
   143 r.147                   -1000         -1001               
   144 r.148                 1997.28      -996.524               
   145 r.149                       2             2               
   146 r.150                      -2         -1001               
   147 r.151                -996.778      -996.778               
   148 r.152                    1000             2               
   149 r.153                   -1000         -1001               
   150 r.154                 1998.35      -993.853               
   151 r.155                -995.452      -998.732               
   152 r.156                  9.4165      -997.104               
   153 r.157                -998.732      -998.732               
   154 r.158                  6.1362      -997.104               
   155 r.159                    1001             2               
   156 r.160                   -1001         -1001               
   157 r.161                    2000      -994.929               
   158 r.162                    1001             2               
   159 r.163                   -1001         -1001               
   160 r.164                 1995.13      -991.857               
   161 r.165                    1001             2               
   162 r.166                   -1001         -1001               
   163 r.167                 2006.14        1.2178               
   164 r.168                    1001             2               
   165 r.169                   -1001         -1001               
   166 r.170                    2000        2.7181               
   167 r.171                       2             2               
   168 r.172                      -2         -1001               
   169 r.173                  6.1362        1.6462               
   170 r.174                    1000             2               
   171 r.175                   -1000         -1001               
   172 r.176                    2000        3.4218               
   173 r.177                       2             2               
   174 r.178                      -2         -1001               
   175 r.179                  1.2678        1.2678               
   176 r.180                    1000             2               
   177 r.181                   -1000         -1001               
   178 r.182                    2000        2.8959               
   179 r.183                       2             2               
   180 r.184                      -2         -1001               
   181 r.185                  -1.616      -998.337               
   182 r.186                    1000             2               
   183 r.187                   -1000         -1001               
   184 r.188                 1997.28      -996.524               
   185 r.189                       2             2               
   186 r.190                      -2         -1001               
   187 r.191                 -995.51      -996.778               
   188 r.192                    1000             2               
   189 r.193                   -1000         -1001               
   190 r.194                 1998.35      -993.853               
   191 r.195                       2             2               
   192 r.196                      -2         -1001               
   193 r.197                 -3.2803      -996.405               
   194 r.198                    1000             2               
   195 r.199                   -1000         -1001               
   196 r.200                 1993.86      -992.164               
   197 r.201                    1001             2               
   198 r.202                   -1001         -1001               
   199 r.203                 2001.27      -994.929               
   200 r.204                    1001             2               
   201 r.205                   -1001         -1001               
   202 r.206                 1995.13      -991.857               
   203 r.207                -993.125      -998.384               
   204 r.208                 13.0116      -996.531               
   205 r.209                -993.125      -998.384               
   206 r.210                 13.0116      -996.531               
   207 r.211                       2             2               
   208 r.212                      -2         -1001               
   209 r.213                  7.7522        1.6462               
   210 r.214                    1000             2               
   211 r.215                   -1000         -1001               
   212 r.216                 2002.72        3.4218               
   213 r.217                       2             2               
   214 r.218                      -2         -1001               
   215 r.219                  2.8838        1.2678               
   216 r.220                    1000             2               
   217 r.221                   -1000         -1001               
   218 r.222                 2002.72        2.8959               
   219 r.223                       2             2               
   220 r.224                      -2         -1001               
   221 r.225                   1.616         1.616               
   222 r.226                    1000             2               
   223 r.227                   -1000         -1001               
   224 r.228                 2002.72        3.4688               
   225 r.229                       2             2               
   226 r.230                      -2         -1001               
   227 r.231                -993.894      -996.778               
   228 r.232                    1000             2               
   229 r.233                   -1000         -1001               
   230 r.234                 2001.07      -993.853               
   231 r.235                       2             2               
   232 r.236                      -2         -1001               
   233 r.237                 -1.6643      -996.405               
   234 r.238                    1000             2               
   235 r.239                   -1000         -1001               
   236 r.240                 1996.58      -992.164               
   237 r.241                    1001             2               
   238 r.242                   -1001         -1001               
   239 r.243                 2002.88      -994.929               
   240 r.244                    1001             2               
   241 r.245                   -1001         -1001               
   242 r.246                 1997.85      -991.857               
   243 r.247                -994.741      -998.337               
   244 r.248                 10.2935      -996.524               
   245 r.249                -994.741      -998.337               
   246 r.250                 10.2935      -996.524               
   247 r.251                    1001             2               
   248 r.252                   -1001         -1001               
   249 r.253                 2001.65        1.2178               
   250 r.254                    1001             2               
   251 r.255                   -1001         -1001               
   252 r.256                 2001.65        2.7181               
   253 r.257                       2             2               
   254 r.258                      -2         -1001               
   255 r.259                 996.778        1.2678               
   256 r.260                    1000             2               
   257 r.261                   -1000         -1001               
   258 r.262                 2001.65        2.8959               
   259 r.263                       2             2               
   260 r.264                      -2         -1001               
   261 r.265                  995.51         1.616               
   262 r.266                    1000             2               
   263 r.267                   -1000         -1001               
   264 r.268                 2001.65        3.4688               
   265 r.269                       2             2               
   266 r.270                      -2         -1001               
   267 r.271                 993.894        1.6628               
   268 r.272                    1000             2               
   269 r.273                   -1000         -1001               
   270 r.274                 1998.93        3.4756               
   271 r.275                       2             2               
   272 r.276                      -2         -1001               
   273 r.277                 -7.7703      -996.405               
   274 r.278                    1000             2               
   275 r.279                   -1000         -1001               
   276 r.280                 1995.51      -992.164               
   277 r.281                -996.778      -996.778               
   278 r.282                  3.2222      -993.853               
   279 r.283                -996.778      -996.778               
   280 r.284                  3.2222      -993.853               
   281 r.285                    1001             2               
   282 r.286                   -1001         -1001               
   283 r.287                 2009.42        1.2178               
   284 r.288                    1001             2               
   285 r.289                   -1001         -1001               
   286 r.290                 2006.14        2.7181               
   287 r.291                       2             2               
   288 r.292                      -2         -1001               
   289 r.293                  9.4165        1.6462               
   290 r.294                    1000             2               
   291 r.295                   -1000         -1001               
   292 r.296                 2006.14        3.4218               
   293 r.297                       2             2               
   294 r.298                      -2         -1001               
   295 r.299                  3.2803         1.616               
   296 r.300                    1000             2               
   297 r.301                   -1000         -1001               
   298 r.302                 2006.14        3.4688               
   299 r.303                       2             2               
   300 r.304                      -2         -1001               
   301 r.305                  1.6643        1.6628               
   302 r.306                    1000             2               
   303 r.307                   -1000         -1001               
   304 r.308                 2003.42        3.4756               
   305 r.309                       2             2               
   306 r.310                      -2         -1001               
   307 r.311                  7.7703        3.2222               
   308 r.312                    1000             2               
   309 r.313                   -1000         -1001               
   310 r.314                 2004.49        6.1469               
   311 r.315                    1001             2               
   312 r.316                   -1001         -1001               
   313 r.317                 2004.55      -994.929               
   314 r.318                    1001             2               
   315 r.319                   -1001         -1001               
   316 r.320                 2001.27      -991.857               
   317 r.321                -996.405      -996.405               
   318 r.322                  6.8754      -992.164               
   319 r.323                -996.405      -996.405               
   320 r.324                  6.8754      -992.164               
   321 r.325                    1000             2               
   322 r.326                   -1000         -1001               
   323 r.327                 2004.87        1.2178               
   324 r.328                       2             2               
   325 r.329                      -2         -1001               
   326 r.330                  4.8684        2.7181               
   327 r.331                    1001             2               
   328 r.332                   -1001         -1001               
   329 r.333                    2000        1.2678               
   330 r.334                    1001             2               
   331 r.335                   -1001         -1001               
   332 r.336                 2004.87        2.8959               
   333 r.337                    1001             2               
   334 r.338                   -1001         -1001               
   335 r.339                 1998.73         1.616               
   336 r.340                    1001             2               
   337 r.341                   -1001         -1001               
   338 r.342                 2004.87        3.4688               
   339 r.343                    1001             2               
   340 r.344                   -1001         -1001               
   341 r.345                 1997.12        1.6628               
   342 r.346                    1001             2               
   343 r.347                   -1001         -1001               
   344 r.348                 2002.15        3.4756               
   345 r.349                    1001             2               
   346 r.350                   -1001         -1001               
   347 r.351                 1995.45        3.5951               
   348 r.352                    1001             2               
   349 r.353                   -1001         -1001               
   350 r.354                 1998.73        7.8356               
   351 r.355                  8.1432      -994.929               
   352 r.356                -991.857      -991.857               
   353 r.357                  8.1432      -994.929               
   354 r.358                -991.857      -991.857               

   No. Column name       Activity     Lower bound   Upper bound
------ ------------    ------------- ------------- -------------
     1 tt                     13.669             0               
     2 s_1_9        *              1             0             1 
     3 s_1_1        *              0             0             1 
     4 t_1_1                       0             0               
     5 s_2_1        *              1             0             1 
     6 t_2_1                       0             0               
     7 s_1_2        *              1             0             1 
     8 t_1_2                       0             0               
     9 s_2_2        *              0             0             1 
    10 t_2_2                       0             0               
    11 s_1_3        *              1             0             1 
    12 t_1_3                  4.8684             0               
    13 s_2_3        *              0             0             1 
    14 t_2_3                       0             0               
    15 s_1_4        *              1             0             1 
    16 t_1_4                  6.1362             0               
    17 s_2_4        *              0             0             1 
    18 t_2_4                       0             0               
    19 s_1_5        *              1             0             1 
    20 t_1_5                  7.7522             0               
    21 s_2_5        *              0             0             1 
    22 t_2_5                  2.7181             0               
    23 s_1_6        *              1             0             1 
    24 t_1_6                  1.6462             0               
    25 s_2_6        *              0             0             1 
    26 t_2_6                  1.6462             0               
    27 s_1_7        *              1             0             1 
    28 t_1_7                  9.4165             0               
    29 s_2_7        *              0             0             1 
    30 t_2_7                  6.1362             0               
    31 s_1_8        *              0             0             1 
    32 t_1_8                  4.8684             0               
    33 s_2_8        *              1             0             1 
    34 t_2_8                  4.8684             0               
    35 t_1_9                 13.0116             0               
    36 s_2_9        *              0             0             1 
    37 t_2_9                 13.0116             0               
    38 r_1_1_2      *              1             0             1 
    39 u_1_1_2      *              0             0             1 
    40 r_2_1_2      *              1             0             1 
    41 u_2_1_2      *              0             0             1 
    42 r_1_1_3      *              1             0             1 
    43 u_1_1_3      *              0             0             1 
    44 r_2_1_3      *              1             0             1 
    45 u_2_1_3      *              0             0             1 
    46 r_1_1_4      *              1             0             1 
    47 u_1_1_4      *              0             0             1 
    48 r_2_1_4      *              1             0             1 
    49 u_2_1_4      *              0             0             1 
    50 r_1_1_6      *              1             0             1 
    51 u_1_1_6      *              0             0             1 
    52 r_2_1_6      *              1             0             1 
    53 u_2_1_6      *              0             0             1 
    54 r_1_1_7      *              1             0             1 
    55 u_1_1_7      *              0             0             1 
    56 r_2_1_7      *              1             0             1 
    57 u_2_1_7      *              0             0             1 
    58 r_1_1_8      *              1             0             1 
    59 u_1_1_8      *              0             0             1 
    60 r_2_1_8      *              0             0             1 
    61 u_2_1_8      *              0             0             1 
    62 r_1_2_3      *              0             0             1 
    63 u_1_2_3      *              0             0             1 
    64 r_2_2_3      *              1             0             1 
    65 u_2_2_3      *              0             0             1 
    66 r_1_2_4      *              0             0             1 
    67 u_1_2_4      *              0             0             1 
    68 r_2_2_4      *              1             0             1 
    69 u_2_2_4      *              0             0             1 
    70 r_1_2_5      *              0             0             1 
    71 u_1_2_5      *              0             0             1 
    72 r_2_2_5      *              1             0             1 
    73 u_2_2_5      *              0             0             1 
    74 r_1_2_7      *              0             0             1 
    75 u_1_2_7      *              0             0             1 
    76 r_2_2_7      *              1             0             1 
    77 u_2_2_7      *              0             0             1 
    78 r_1_3_4      *              0             0             1 
    79 u_1_3_4      *              0             0             1 
    80 r_2_3_4      *              1             0             1 
    81 u_2_3_4      *              0             0             1 
    82 r_1_3_5      *              0             0             1 
    83 u_1_3_5      *              0             0             1 
    84 r_2_3_5      *              1             0             1 
    85 u_2_3_5      *              0             0             1 
    86 r_1_3_6      *              0             0             1 
    87 u_1_3_6      *              1             0             1 
    88 r_2_3_6      *              1             0             1 
    89 u_2_3_6      *              0             0             1 
    90 r_1_3_8      *              1             0             1 
    91 u_1_3_8      *              0             0             1 
    92 r_2_3_8      *              1             0             1 
    93 u_2_3_8      *              0             0             1 
    94 r_1_4_5      *              0             0             1 
    95 u_1_4_5      *              0             0             1 
    96 r_2_4_5      *              1             0             1 
    97 u_2_4_5      *              0             0             1 
    98 r_1_4_6      *              0             0             1 
    99 u_1_4_6      *              1             0             1 
   100 r_2_4_6      *              1             0             1 
   101 u_2_4_6      *              0             0             1 
   102 r_1_4_7      *              0             0             1 
   103 u_1_4_7      *              0             0             1 
   104 r_2_4_7      *              1             0             1 
   105 u_2_4_7      *              0             0             1 
   106 r_1_4_8      *              1             0             1 
   107 u_1_4_8      *              0             0             1 
   108 r_2_4_8      *              1             0             1 
   109 u_2_4_8      *              0             0             1 
   110 r_1_5_6      *              0             0             1 
   111 u_1_5_6      *              1             0             1 
   112 r_2_5_6      *              1             0             1 
   113 u_2_5_6      *              0             0             1 
   114 r_1_5_7      *              0             0             1 
   115 u_1_5_7      *              0             0             1 
   116 r_2_5_7      *              1             0             1 
   117 u_2_5_7      *              0             0             1 
   118 r_1_5_8      *              1             0             1 
   119 u_1_5_8      *              0             0             1 
   120 r_2_5_8      *              1             0             1 
   121 u_2_5_8      *              0             0             1 
   122 r_1_6_7      *              0             0             1 
   123 u_1_6_7      *              0             0             1 
   124 r_2_6_7      *              1             0             1 
   125 u_2_6_7      *              0             0             1 
   126 r_1_7_8      *              1             0             1 
   127 u_1_7_8      *              0             0             1 
   128 r_2_7_8      *              1             0             1 
   129 u_2_7_8      *              0             0             1 

Integer feasibility conditions:

KKT.PE: max.abs.err = 2.27e-13 on row 199
        max.rel.err = 5.67e-17 on row 335
        High quality

KKT.PB: max.abs.err = 3.44e-14 on row 175
        max.rel.err = 1.52e-14 on row 175
        High quality

End of output
